p edge 193
e 0 2
e 0 4
e 0 7
e 0 8
e 0 73
e 1 4
e 1 6
e 1 7
e 1 8
e 1 9
e 2 3
e 2 4
e 2 6
e 2 10
e 2 11
e 2 27
e 2 70
e 2 73
e 2 127
e 2 174
e 3 20
e 3 40
e 3 174
e 4 7
e 5 6
e 5 9
e 5 12
e 5 27
e 5 94
e 5 164
e 6 9
e 6 27
e 7 8
e 8 9
e 9 73
e 10 11
e 10 64
e 10 70
e 11 64
e 11 73
e 12 19
e 12 164
e 13 16
e 13 17
e 13 76
e 14 17
e 14 18
e 14 19
e 14 164
e 15 16
e 15 17
e 15 24
e 15 25
e 15 94
e 15 156
e 16 17
e 16 76
e 16 144
e 16 156
e 17 18
e 17 46
e 17 76
e 17 94
e 17 98
e 17 164
e 18 42
e 19 164
e 20 27
e 20 30
e 20 40
e 20 44
e 21 22
e 21 41
e 21 44
e 21 86
e 22 23
e 22 24
e 22 43
e 22 44
e 22 85
e 22 86
e 22 155
e 23 37
e 23 43
e 23 85
e 23 144
e 24 25
e 24 26
e 24 28
e 24 29
e 24 30
e 24 31
e 24 35
e 24 36
e 24 44
e 24 155
e 24 156
e 25 31
e 25 36
e 25 94
e 26 28
e 26 29
e 26 30
e 26 44
e 26 45
e 27 30
e 27 31
e 27 94
e 28 29
e 28 30
e 28 45
e 29 45
e 30 31
e 30 44
e 31 35
e 31 36
e 31 94
e 32 33
e 32 34
e 32 38
e 32 39
e 33 34
e 33 39
e 33 40
e 33 41
e 34 38
e 34 40
e 34 66
e 35 36
e 37 43
e 37 144
e 37 155
e 37 156
e 38 39
e 38 66
e 38 103
e 38 153
e 38 154
e 39 41
e 39 86
e 39 154
e 40 44
e 40 66
e 40 174
e 41 44
e 41 86
e 42 98
e 42 149
e 43 155
e 46 76
e 46 98
e 47 95
e 47 149
e 47 150
e 48 74
e 48 78
e 48 95
e 48 98
e 48 150
e 49 50
e 49 74
e 49 75
e 49 78
e 49 97
e 49 99
e 50 54
e 50 75
e 50 77
e 50 78
e 51 52
e 51 101
e 52 101
e 52 102
e 52 153
e 53 119
e 53 133
e 53 170
e 53 172
e 54 55
e 54 77
e 54 78
e 54 91
e 54 106
e 54 107
e 55 56
e 55 62
e 55 77
e 55 107
e 55 131
e 56 62
e 56 93
e 56 107
e 57 58
e 57 92
e 57 105
e 57 160
e 58 92
e 58 105
e 59 60
e 59 62
e 59 63
e 59 87
e 59 131
e 59 184
e 60 87
e 60 88
e 60 128
e 60 130
e 60 184
e 60 191
e 60 192
e 61 62
e 61 63
e 61 131
e 62 63
e 62 131
e 63 131
e 64 69
e 64 70
e 65 67
e 65 68
e 65 69
e 65 70
e 65 126
e 66 70
e 66 103
e 66 126
e 66 127
e 66 174
e 67 68
e 67 70
e 68 70
e 68 126
e 69 70
e 70 126
e 70 127
e 71 72
e 71 120
e 71 133
e 71 151
e 71 152
e 72 119
e 72 120
e 72 133
e 72 134
e 72 135
e 74 78
e 74 95
e 74 99
e 74 111
e 75 77
e 75 96
e 75 97
e 75 180
e 75 183
e 76 98
e 76 144
e 76 158
e 77 131
e 77 175
e 77 180
e 78 91
e 78 98
e 79 89
e 79 110
e 79 122
e 79 125
e 79 147
e 80 123
e 80 167
e 80 171
e 81 83
e 81 84
e 81 85
e 81 86
e 81 114
e 81 123
e 82 84
e 82 121
e 82 124
e 82 142
e 82 143
e 83 86
e 83 123
e 83 168
e 84 85
e 84 114
e 84 124
e 84 143
e 85 86
e 85 143
e 86 125
e 86 154
e 86 167
e 86 168
e 87 129
e 87 130
e 88 128
e 88 129
e 89 112
e 89 115
e 89 116
e 89 122
e 89 147
e 90 137
e 90 139
e 90 144
e 90 158
e 90 162
e 90 163
e 91 98
e 91 106
e 91 158
e 91 160
e 92 105
e 92 160
e 93 107
e 93 108
e 93 157
e 94 164
e 95 111
e 95 150
e 96 97
e 96 183
e 97 99
e 98 149
e 98 150
e 98 158
e 99 111
e 100 101
e 100 104
e 100 109
e 100 110
e 100 147
e 100 148
e 100 153
e 101 148
e 101 153
e 102 103
e 102 153
e 103 126
e 103 153
e 104 109
e 105 160
e 106 107
e 106 159
e 106 160
e 107 108
e 107 159
e 108 157
e 108 159
e 108 162
e 108 163
e 110 125
e 110 154
e 112 113
e 112 115
e 112 116
e 112 170
e 112 173
e 113 116
e 113 117
e 113 118
e 113 151
e 113 167
e 113 173
e 114 123
e 114 124
e 114 151
e 114 152
e 115 120
e 115 147
e 115 165
e 115 169
e 115 170
e 116 122
e 116 125
e 116 167
e 117 118
e 117 133
e 117 151
e 117 173
e 118 173
e 119 133
e 119 135
e 119 172
e 120 121
e 120 124
e 120 134
e 120 136
e 120 152
e 120 165
e 121 124
e 122 125
e 123 151
e 123 167
e 123 168
e 123 171
e 124 152
e 127 174
e 128 129
e 128 130
e 128 132
e 129 130
e 129 132
e 130 132
e 131 175
e 131 182
e 131 184
e 133 151
e 133 170
e 134 135
e 134 136
e 134 172
e 135 172
e 136 165
e 136 172
e 137 139
e 137 140
e 137 145
e 137 162
e 138 140
e 138 143
e 138 144
e 138 146
e 139 144
e 139 145
e 139 146
e 140 141
e 140 142
e 140 143
e 140 145
e 140 146
e 141 142
e 142 143
e 143 144
e 144 146
e 144 156
e 144 158
e 145 146
e 147 148
e 149 150
e 151 152
e 151 166
e 151 167
e 151 171
e 153 154
e 155 156
e 157 162
e 158 160
e 158 163
e 159 160
e 159 161
e 159 163
e 160 161
e 160 163
e 161 163
e 162 163
e 165 169
e 165 170
e 165 172
e 167 168
e 167 171
e 169 170
e 170 172
e 170 173
e 175 180
e 175 182
e 176 177
e 176 179
e 176 186
e 176 187
e 176 190
e 177 179
e 177 180
e 177 185
e 177 186
e 177 189
e 178 184
e 178 185
e 178 186
e 178 191
e 179 190
e 180 181
e 180 182
e 180 183
e 180 184
e 180 185
e 180 189
e 181 183
e 181 188
e 181 189
e 182 184
e 183 188
e 184 185
e 185 186
e 186 187
e 186 191
e 186 192
e 187 190
e 191 192
c k 1
